SECTION Graph
Nodes 91
Edges 90

E 3 501 101
E 3 538 101
E 5 506 101
E 5 543 101
E 8 519 101
E 8 528 101
E 13 505 101
E 13 520 101
E 18 522 101
E 18 528 101
E 19 506 101
E 19 517 101
E 30 501 101
E 30 524 101
E 30 546 101
E 52 502 101
E 52 543 101
E 61 511 101
E 61 519 101
E 67 514 101
E 67 543 101
E 69 529 101
E 69 530 101
E 75 521 101
E 75 527 101
E 76 501 101
E 76 506 101
E 76 542 101
E 81 518 101
E 81 522 101
E 84 540 101
E 84 548 101
E 91 541 101
E 91 549 101
E 103 532 101
E 103 540 101
E 116 501 101
E 116 504 101
E 119 501 101
E 119 519 101
E 119 539 101
E 119 544 101
E 130 518 101
E 130 534 101
E 146 510 101
E 146 513 101
E 146 519 101
E 181 530 101
E 181 536 101
E 182 512 101
E 182 522 101
E 188 501 101
E 188 547 101
E 192 501 101
E 192 507 101
E 192 536 101
E 209 523 101
E 209 525 101
E 219 525 101
E 219 543 101
E 245 525 101
E 245 531 101
E 257 515 101
E 257 536 101
E 271 504 101
E 271 509 101
E 271 550 101
E 281 521 101
E 281 533 101
E 326 501 101
E 326 520 101
E 352 504 101
E 352 516 101
E 366 519 101
E 366 521 101
E 366 540 101
E 379 506 101
E 379 541 101
E 395 503 101
E 395 504 101
E 445 504 101
E 445 508 101
E 452 504 101
E 452 545 101
E 467 501 101
E 467 537 101
E 470 522 101
E 470 535 101
E 475 520 101
E 475 526 101
END
SECTION Terminals
T 501
T 502
T 503
T 504
T 505
T 506
T 507
T 508
T 509
T 510
T 511
T 512
T 513
T 514
T 515
T 516
T 517
T 518
T 519
T 520
T 521
T 522
T 523
T 524
T 525
T 526
T 527
T 528
T 529
T 530
T 531
T 532
T 533
T 534
T 535
T 536
T 537
T 538
T 539
T 540
T 541
T 542
T 543
T 544
T 545
T 546
T 547
T 548
T 549
T 550
END
SECTION Cost
9090
END
